(set-logic QF_S)
(declare-fun var0 () String)
(assert (str.in.re var0 (re.++ (re.union (re.+ (re.union (re.+ (re.union (re.+ (re.union (re.* (str.to.re "00")) (re.* (str.to.re "111")))) (re.+ (re.union (re.union (str.to.re "222") (str.to.re "3")) (re.union (str.to.re "44") (str.to.re "55")))))) (re.+ (re.union (re.+ (re.union (re.+ (str.to.re "66")) (re.+ (str.to.re "77")))) (re.+ (re.union (re.+ (str.to.re "88")) (re.+ (str.to.re "99")))))))) (re.+ (re.+ (re.* (re.union (re.union (re.+ (re.union (str.to.re "aa") (str.to.re "b"))) (re.+ (re.+ (str.to.re "c")))) (re.union (re.+ (re.union (str.to.re "ddd") (str.to.re "e"))) (re.+ (re.* (str.to.re "f"))))))))) (re.* (re.+ (re.union (re.union (re.* (re.+ (re.+ (re.union (str.to.re "g") (str.to.re "hhh"))))) (re.* (re.+ (re.union (re.* (str.to.re "ii")) (re.* (str.to.re "jjj")))))) (re.union (re.* (re.+ (re.+ (re.+ (str.to.re "kk"))))) (re.* (re.* (re.* (re.* (str.to.re "l"))))))))))))
(assert (<= 15 (str.len var0)))
(check-sat)